p cnf 72 837
1 2 3 4 5 6 7 8 0
9 10 11 12 13 14 15 16 0
17 18 19 20 21 22 23 24 0
25 26 27 28 29 30 31 32 0
33 34 35 36 37 38 39 40 0
41 42 43 44 45 46 47 48 0
49 50 51 52 53 54 55 56 0
57 58 59 60 61 62 63 64 0
65 66 67 68 69 70 71 72 0
-1 -2 0
-1 -3 0
-1 -4 0
-1 -5 0
-1 -6 0
-1 -7 0
-1 -8 0
-2 -3 0
-2 -4 0
-2 -5 0
-2 -6 0
-2 -7 0
-2 -8 0
-3 -4 0
-3 -5 0
-3 -6 0
-3 -7 0
-3 -8 0
-4 -5 0
-4 -6 0
-4 -7 0
-4 -8 0
-5 -6 0
-5 -7 0
-5 -8 0
-6 -7 0
-6 -8 0
-7 -8 0
-9 -10 0
-9 -11 0
-9 -12 0
-9 -13 0
-9 -14 0
-9 -15 0
-9 -16 0
-10 -11 0
-10 -12 0
-10 -13 0
-10 -14 0
-10 -15 0
-10 -16 0
-11 -12 0
-11 -13 0
-11 -14 0
-11 -15 0
-11 -16 0
-12 -13 0
-12 -14 0
-12 -15 0
-12 -16 0
-13 -14 0
-13 -15 0
-13 -16 0
-14 -15 0
-14 -16 0
-15 -16 0
-17 -18 0
-17 -19 0
-17 -20 0
-17 -21 0
-17 -22 0
-17 -23 0
-17 -24 0
-18 -19 0
-18 -20 0
-18 -21 0
-18 -22 0
-18 -23 0
-18 -24 0
-19 -20 0
-19 -21 0
-19 -22 0
-19 -23 0
-19 -24 0
-20 -21 0
-20 -22 0
-20 -23 0
-20 -24 0
-21 -22 0
-21 -23 0
-21 -24 0
-22 -23 0
-22 -24 0
-23 -24 0
-25 -26 0
-25 -27 0
-25 -28 0
-25 -29 0
-25 -30 0
-25 -31 0
-25 -32 0
-26 -27 0
-26 -28 0
-26 -29 0
-26 -30 0
-26 -31 0
-26 -32 0
-27 -28 0
-27 -29 0
-27 -30 0
-27 -31 0
-27 -32 0
-28 -29 0
-28 -30 0
-28 -31 0
-28 -32 0
-29 -30 0
-29 -31 0
-29 -32 0
-30 -31 0
-30 -32 0
-31 -32 0
-33 -34 0
-33 -35 0
-33 -36 0
-33 -37 0
-33 -38 0
-33 -39 0
-33 -40 0
-34 -35 0
-34 -36 0
-34 -37 0
-34 -38 0
-34 -39 0
-34 -40 0
-35 -36 0
-35 -37 0
-35 -38 0
-35 -39 0
-35 -40 0
-36 -37 0
-36 -38 0
-36 -39 0
-36 -40 0
-37 -38 0
-37 -39 0
-37 -40 0
-38 -39 0
-38 -40 0
-39 -40 0
-41 -42 0
-41 -43 0
-41 -44 0
-41 -45 0
-41 -46 0
-41 -47 0
-41 -48 0
-42 -43 0
-42 -44 0
-42 -45 0
-42 -46 0
-42 -47 0
-42 -48 0
-43 -44 0
-43 -45 0
-43 -46 0
-43 -47 0
-43 -48 0
-44 -45 0
-44 -46 0
-44 -47 0
-44 -48 0
-45 -46 0
-45 -47 0
-45 -48 0
-46 -47 0
-46 -48 0
-47 -48 0
-49 -50 0
-49 -51 0
-49 -52 0
-49 -53 0
-49 -54 0
-49 -55 0
-49 -56 0
-50 -51 0
-50 -52 0
-50 -53 0
-50 -54 0
-50 -55 0
-50 -56 0
-51 -52 0
-51 -53 0
-51 -54 0
-51 -55 0
-51 -56 0
-52 -53 0
-52 -54 0
-52 -55 0
-52 -56 0
-53 -54 0
-53 -55 0
-53 -56 0
-54 -55 0
-54 -56 0
-55 -56 0
-57 -58 0
-57 -59 0
-57 -60 0
-57 -61 0
-57 -62 0
-57 -63 0
-57 -64 0
-58 -59 0
-58 -60 0
-58 -61 0
-58 -62 0
-58 -63 0
-58 -64 0
-59 -60 0
-59 -61 0
-59 -62 0
-59 -63 0
-59 -64 0
-60 -61 0
-60 -62 0
-60 -63 0
-60 -64 0
-61 -62 0
-61 -63 0
-61 -64 0
-62 -63 0
-62 -64 0
-63 -64 0
-65 -66 0
-65 -67 0
-65 -68 0
-65 -69 0
-65 -70 0
-65 -71 0
-65 -72 0
-66 -67 0
-66 -68 0
-66 -69 0
-66 -70 0
-66 -71 0
-66 -72 0
-67 -68 0
-67 -69 0
-67 -70 0
-67 -71 0
-67 -72 0
-68 -69 0
-68 -70 0
-68 -71 0
-68 -72 0
-69 -70 0
-69 -71 0
-69 -72 0
-70 -71 0
-70 -72 0
-71 -72 0
-1 10 11 12 13 14 15 16 0
-2 9 11 12 13 14 15 16 0
-3 9 10 12 13 14 15 16 0
-4 9 10 11 13 14 15 16 0
-5 9 10 11 12 14 15 16 0
-6 9 10 11 12 13 15 16 0
-7 9 10 11 12 13 14 16 0
-8 9 10 11 12 13 14 15 0
-1 18 19 20 21 22 23 24 0
-2 17 19 20 21 22 23 24 0
-3 17 18 20 21 22 23 24 0
-4 17 18 19 21 22 23 24 0
-5 17 18 19 20 22 23 24 0
-6 17 18 19 20 21 23 24 0
-7 17 18 19 20 21 22 24 0
-8 17 18 19 20 21 22 23 0
-1 26 27 28 29 30 31 32 0
-2 25 27 28 29 30 31 32 0
-3 25 26 28 29 30 31 32 0
-4 25 26 27 29 30 31 32 0
-5 25 26 27 28 30 31 32 0
-6 25 26 27 28 29 31 32 0
-7 25 26 27 28 29 30 32 0
-8 25 26 27 28 29 30 31 0
-1 34 35 36 37 38 39 40 0
-2 33 35 36 37 38 39 40 0
-3 33 34 36 37 38 39 40 0
-4 33 34 35 37 38 39 40 0
-5 33 34 35 36 38 39 40 0
-6 33 34 35 36 37 39 40 0
-7 33 34 35 36 37 38 40 0
-8 33 34 35 36 37 38 39 0
-1 42 43 44 45 46 47 48 0
-2 41 43 44 45 46 47 48 0
-3 41 42 44 45 46 47 48 0
-4 41 42 43 45 46 47 48 0
-5 41 42 43 44 46 47 48 0
-6 41 42 43 44 45 47 48 0
-7 41 42 43 44 45 46 48 0
-8 41 42 43 44 45 46 47 0
-1 50 51 52 53 54 55 56 0
-2 49 51 52 53 54 55 56 0
-3 49 50 52 53 54 55 56 0
-4 49 50 51 53 54 55 56 0
-5 49 50 51 52 54 55 56 0
-6 49 50 51 52 53 55 56 0
-7 49 50 51 52 53 54 56 0
-8 49 50 51 52 53 54 55 0
-1 58 59 60 61 62 63 64 0
-2 57 59 60 61 62 63 64 0
-3 57 58 60 61 62 63 64 0
-4 57 58 59 61 62 63 64 0
-5 57 58 59 60 62 63 64 0
-6 57 58 59 60 61 63 64 0
-7 57 58 59 60 61 62 64 0
-8 57 58 59 60 61 62 63 0
-1 66 67 68 69 70 71 72 0
-2 65 67 68 69 70 71 72 0
-3 65 66 68 69 70 71 72 0
-4 65 66 67 69 70 71 72 0
-5 65 66 67 68 70 71 72 0
-6 65 66 67 68 69 71 72 0
-7 65 66 67 68 69 70 72 0
-8 65 66 67 68 69 70 71 0
-9 2 3 4 5 6 7 8 0
-10 1 3 4 5 6 7 8 0
-11 1 2 4 5 6 7 8 0
-12 1 2 3 5 6 7 8 0
-13 1 2 3 4 6 7 8 0
-14 1 2 3 4 5 7 8 0
-15 1 2 3 4 5 6 8 0
-16 1 2 3 4 5 6 7 0
-9 18 19 20 21 22 23 24 0
-10 17 19 20 21 22 23 24 0
-11 17 18 20 21 22 23 24 0
-12 17 18 19 21 22 23 24 0
-13 17 18 19 20 22 23 24 0
-14 17 18 19 20 21 23 24 0
-15 17 18 19 20 21 22 24 0
-16 17 18 19 20 21 22 23 0
-9 26 27 28 29 30 31 32 0
-10 25 27 28 29 30 31 32 0
-11 25 26 28 29 30 31 32 0
-12 25 26 27 29 30 31 32 0
-13 25 26 27 28 30 31 32 0
-14 25 26 27 28 29 31 32 0
-15 25 26 27 28 29 30 32 0
-16 25 26 27 28 29 30 31 0
-9 34 35 36 37 38 39 40 0
-10 33 35 36 37 38 39 40 0
-11 33 34 36 37 38 39 40 0
-12 33 34 35 37 38 39 40 0
-13 33 34 35 36 38 39 40 0
-14 33 34 35 36 37 39 40 0
-15 33 34 35 36 37 38 40 0
-16 33 34 35 36 37 38 39 0
-9 42 43 44 45 46 47 48 0
-10 41 43 44 45 46 47 48 0
-11 41 42 44 45 46 47 48 0
-12 41 42 43 45 46 47 48 0
-13 41 42 43 44 46 47 48 0
-14 41 42 43 44 45 47 48 0
-15 41 42 43 44 45 46 48 0
-16 41 42 43 44 45 46 47 0
-9 50 51 52 53 54 55 56 0
-10 49 51 52 53 54 55 56 0
-11 49 50 52 53 54 55 56 0
-12 49 50 51 53 54 55 56 0
-13 49 50 51 52 54 55 56 0
-14 49 50 51 52 53 55 56 0
-15 49 50 51 52 53 54 56 0
-16 49 50 51 52 53 54 55 0
-9 58 59 60 61 62 63 64 0
-10 57 59 60 61 62 63 64 0
-11 57 58 60 61 62 63 64 0
-12 57 58 59 61 62 63 64 0
-13 57 58 59 60 62 63 64 0
-14 57 58 59 60 61 63 64 0
-15 57 58 59 60 61 62 64 0
-16 57 58 59 60 61 62 63 0
-9 66 67 68 69 70 71 72 0
-10 65 67 68 69 70 71 72 0
-11 65 66 68 69 70 71 72 0
-12 65 66 67 69 70 71 72 0
-13 65 66 67 68 70 71 72 0
-14 65 66 67 68 69 71 72 0
-15 65 66 67 68 69 70 72 0
-16 65 66 67 68 69 70 71 0
-17 2 3 4 5 6 7 8 0
-18 1 3 4 5 6 7 8 0
-19 1 2 4 5 6 7 8 0
-20 1 2 3 5 6 7 8 0
-21 1 2 3 4 6 7 8 0
-22 1 2 3 4 5 7 8 0
-23 1 2 3 4 5 6 8 0
-24 1 2 3 4 5 6 7 0
-17 10 11 12 13 14 15 16 0
-18 9 11 12 13 14 15 16 0
-19 9 10 12 13 14 15 16 0
-20 9 10 11 13 14 15 16 0
-21 9 10 11 12 14 15 16 0
-22 9 10 11 12 13 15 16 0
-23 9 10 11 12 13 14 16 0
-24 9 10 11 12 13 14 15 0
-17 26 27 28 29 30 31 32 0
-18 25 27 28 29 30 31 32 0
-19 25 26 28 29 30 31 32 0
-20 25 26 27 29 30 31 32 0
-21 25 26 27 28 30 31 32 0
-22 25 26 27 28 29 31 32 0
-23 25 26 27 28 29 30 32 0
-24 25 26 27 28 29 30 31 0
-17 34 35 36 37 38 39 40 0
-18 33 35 36 37 38 39 40 0
-19 33 34 36 37 38 39 40 0
-20 33 34 35 37 38 39 40 0
-21 33 34 35 36 38 39 40 0
-22 33 34 35 36 37 39 40 0
-23 33 34 35 36 37 38 40 0
-24 33 34 35 36 37 38 39 0
-17 42 43 44 45 46 47 48 0
-18 41 43 44 45 46 47 48 0
-19 41 42 44 45 46 47 48 0
-20 41 42 43 45 46 47 48 0
-21 41 42 43 44 46 47 48 0
-22 41 42 43 44 45 47 48 0
-23 41 42 43 44 45 46 48 0
-24 41 42 43 44 45 46 47 0
-17 50 51 52 53 54 55 56 0
-18 49 51 52 53 54 55 56 0
-19 49 50 52 53 54 55 56 0
-20 49 50 51 53 54 55 56 0
-21 49 50 51 52 54 55 56 0
-22 49 50 51 52 53 55 56 0
-23 49 50 51 52 53 54 56 0
-24 49 50 51 52 53 54 55 0
-17 58 59 60 61 62 63 64 0
-18 57 59 60 61 62 63 64 0
-19 57 58 60 61 62 63 64 0
-20 57 58 59 61 62 63 64 0
-21 57 58 59 60 62 63 64 0
-22 57 58 59 60 61 63 64 0
-23 57 58 59 60 61 62 64 0
-24 57 58 59 60 61 62 63 0
-17 66 67 68 69 70 71 72 0
-18 65 67 68 69 70 71 72 0
-19 65 66 68 69 70 71 72 0
-20 65 66 67 69 70 71 72 0
-21 65 66 67 68 70 71 72 0
-22 65 66 67 68 69 71 72 0
-23 65 66 67 68 69 70 72 0
-24 65 66 67 68 69 70 71 0
-25 2 3 4 5 6 7 8 0
-26 1 3 4 5 6 7 8 0
-27 1 2 4 5 6 7 8 0
-28 1 2 3 5 6 7 8 0
-29 1 2 3 4 6 7 8 0
-30 1 2 3 4 5 7 8 0
-31 1 2 3 4 5 6 8 0
-32 1 2 3 4 5 6 7 0
-25 10 11 12 13 14 15 16 0
-26 9 11 12 13 14 15 16 0
-27 9 10 12 13 14 15 16 0
-28 9 10 11 13 14 15 16 0
-29 9 10 11 12 14 15 16 0
-30 9 10 11 12 13 15 16 0
-31 9 10 11 12 13 14 16 0
-32 9 10 11 12 13 14 15 0
-25 18 19 20 21 22 23 24 0
-26 17 19 20 21 22 23 24 0
-27 17 18 20 21 22 23 24 0
-28 17 18 19 21 22 23 24 0
-29 17 18 19 20 22 23 24 0
-30 17 18 19 20 21 23 24 0
-31 17 18 19 20 21 22 24 0
-32 17 18 19 20 21 22 23 0
-25 34 35 36 37 38 39 40 0
-26 33 35 36 37 38 39 40 0
-27 33 34 36 37 38 39 40 0
-28 33 34 35 37 38 39 40 0
-29 33 34 35 36 38 39 40 0
-30 33 34 35 36 37 39 40 0
-31 33 34 35 36 37 38 40 0
-32 33 34 35 36 37 38 39 0
-25 42 43 44 45 46 47 48 0
-26 41 43 44 45 46 47 48 0
-27 41 42 44 45 46 47 48 0
-28 41 42 43 45 46 47 48 0
-29 41 42 43 44 46 47 48 0
-30 41 42 43 44 45 47 48 0
-31 41 42 43 44 45 46 48 0
-32 41 42 43 44 45 46 47 0
-25 50 51 52 53 54 55 56 0
-26 49 51 52 53 54 55 56 0
-27 49 50 52 53 54 55 56 0
-28 49 50 51 53 54 55 56 0
-29 49 50 51 52 54 55 56 0
-30 49 50 51 52 53 55 56 0
-31 49 50 51 52 53 54 56 0
-32 49 50 51 52 53 54 55 0
-25 58 59 60 61 62 63 64 0
-26 57 59 60 61 62 63 64 0
-27 57 58 60 61 62 63 64 0
-28 57 58 59 61 62 63 64 0
-29 57 58 59 60 62 63 64 0
-30 57 58 59 60 61 63 64 0
-31 57 58 59 60 61 62 64 0
-32 57 58 59 60 61 62 63 0
-25 66 67 68 69 70 71 72 0
-26 65 67 68 69 70 71 72 0
-27 65 66 68 69 70 71 72 0
-28 65 66 67 69 70 71 72 0
-29 65 66 67 68 70 71 72 0
-30 65 66 67 68 69 71 72 0
-31 65 66 67 68 69 70 72 0
-32 65 66 67 68 69 70 71 0
-33 2 3 4 5 6 7 8 0
-34 1 3 4 5 6 7 8 0
-35 1 2 4 5 6 7 8 0
-36 1 2 3 5 6 7 8 0
-37 1 2 3 4 6 7 8 0
-38 1 2 3 4 5 7 8 0
-39 1 2 3 4 5 6 8 0
-40 1 2 3 4 5 6 7 0
-33 10 11 12 13 14 15 16 0
-34 9 11 12 13 14 15 16 0
-35 9 10 12 13 14 15 16 0
-36 9 10 11 13 14 15 16 0
-37 9 10 11 12 14 15 16 0
-38 9 10 11 12 13 15 16 0
-39 9 10 11 12 13 14 16 0
-40 9 10 11 12 13 14 15 0
-33 18 19 20 21 22 23 24 0
-34 17 19 20 21 22 23 24 0
-35 17 18 20 21 22 23 24 0
-36 17 18 19 21 22 23 24 0
-37 17 18 19 20 22 23 24 0
-38 17 18 19 20 21 23 24 0
-39 17 18 19 20 21 22 24 0
-40 17 18 19 20 21 22 23 0
-33 26 27 28 29 30 31 32 0
-34 25 27 28 29 30 31 32 0
-35 25 26 28 29 30 31 32 0
-36 25 26 27 29 30 31 32 0
-37 25 26 27 28 30 31 32 0
-38 25 26 27 28 29 31 32 0
-39 25 26 27 28 29 30 32 0
-40 25 26 27 28 29 30 31 0
-33 42 43 44 45 46 47 48 0
-34 41 43 44 45 46 47 48 0
-35 41 42 44 45 46 47 48 0
-36 41 42 43 45 46 47 48 0
-37 41 42 43 44 46 47 48 0
-38 41 42 43 44 45 47 48 0
-39 41 42 43 44 45 46 48 0
-40 41 42 43 44 45 46 47 0
-33 50 51 52 53 54 55 56 0
-34 49 51 52 53 54 55 56 0
-35 49 50 52 53 54 55 56 0
-36 49 50 51 53 54 55 56 0
-37 49 50 51 52 54 55 56 0
-38 49 50 51 52 53 55 56 0
-39 49 50 51 52 53 54 56 0
-40 49 50 51 52 53 54 55 0
-33 58 59 60 61 62 63 64 0
-34 57 59 60 61 62 63 64 0
-35 57 58 60 61 62 63 64 0
-36 57 58 59 61 62 63 64 0
-37 57 58 59 60 62 63 64 0
-38 57 58 59 60 61 63 64 0
-39 57 58 59 60 61 62 64 0
-40 57 58 59 60 61 62 63 0
-33 66 67 68 69 70 71 72 0
-34 65 67 68 69 70 71 72 0
-35 65 66 68 69 70 71 72 0
-36 65 66 67 69 70 71 72 0
-37 65 66 67 68 70 71 72 0
-38 65 66 67 68 69 71 72 0
-39 65 66 67 68 69 70 72 0
-40 65 66 67 68 69 70 71 0
-41 2 3 4 5 6 7 8 0
-42 1 3 4 5 6 7 8 0
-43 1 2 4 5 6 7 8 0
-44 1 2 3 5 6 7 8 0
-45 1 2 3 4 6 7 8 0
-46 1 2 3 4 5 7 8 0
-47 1 2 3 4 5 6 8 0
-48 1 2 3 4 5 6 7 0
-41 10 11 12 13 14 15 16 0
-42 9 11 12 13 14 15 16 0
-43 9 10 12 13 14 15 16 0
-44 9 10 11 13 14 15 16 0
-45 9 10 11 12 14 15 16 0
-46 9 10 11 12 13 15 16 0
-47 9 10 11 12 13 14 16 0
-48 9 10 11 12 13 14 15 0
-41 18 19 20 21 22 23 24 0
-42 17 19 20 21 22 23 24 0
-43 17 18 20 21 22 23 24 0
-44 17 18 19 21 22 23 24 0
-45 17 18 19 20 22 23 24 0
-46 17 18 19 20 21 23 24 0
-47 17 18 19 20 21 22 24 0
-48 17 18 19 20 21 22 23 0
-41 26 27 28 29 30 31 32 0
-42 25 27 28 29 30 31 32 0
-43 25 26 28 29 30 31 32 0
-44 25 26 27 29 30 31 32 0
-45 25 26 27 28 30 31 32 0
-46 25 26 27 28 29 31 32 0
-47 25 26 27 28 29 30 32 0
-48 25 26 27 28 29 30 31 0
-41 34 35 36 37 38 39 40 0
-42 33 35 36 37 38 39 40 0
-43 33 34 36 37 38 39 40 0
-44 33 34 35 37 38 39 40 0
-45 33 34 35 36 38 39 40 0
-46 33 34 35 36 37 39 40 0
-47 33 34 35 36 37 38 40 0
-48 33 34 35 36 37 38 39 0
-41 50 51 52 53 54 55 56 0
-42 49 51 52 53 54 55 56 0
-43 49 50 52 53 54 55 56 0
-44 49 50 51 53 54 55 56 0
-45 49 50 51 52 54 55 56 0
-46 49 50 51 52 53 55 56 0
-47 49 50 51 52 53 54 56 0
-48 49 50 51 52 53 54 55 0
-41 58 59 60 61 62 63 64 0
-42 57 59 60 61 62 63 64 0
-43 57 58 60 61 62 63 64 0
-44 57 58 59 61 62 63 64 0
-45 57 58 59 60 62 63 64 0
-46 57 58 59 60 61 63 64 0
-47 57 58 59 60 61 62 64 0
-48 57 58 59 60 61 62 63 0
-41 66 67 68 69 70 71 72 0
-42 65 67 68 69 70 71 72 0
-43 65 66 68 69 70 71 72 0
-44 65 66 67 69 70 71 72 0
-45 65 66 67 68 70 71 72 0
-46 65 66 67 68 69 71 72 0
-47 65 66 67 68 69 70 72 0
-48 65 66 67 68 69 70 71 0
-49 2 3 4 5 6 7 8 0
-50 1 3 4 5 6 7 8 0
-51 1 2 4 5 6 7 8 0
-52 1 2 3 5 6 7 8 0
-53 1 2 3 4 6 7 8 0
-54 1 2 3 4 5 7 8 0
-55 1 2 3 4 5 6 8 0
-56 1 2 3 4 5 6 7 0
-49 10 11 12 13 14 15 16 0
-50 9 11 12 13 14 15 16 0
-51 9 10 12 13 14 15 16 0
-52 9 10 11 13 14 15 16 0
-53 9 10 11 12 14 15 16 0
-54 9 10 11 12 13 15 16 0
-55 9 10 11 12 13 14 16 0
-56 9 10 11 12 13 14 15 0
-49 18 19 20 21 22 23 24 0
-50 17 19 20 21 22 23 24 0
-51 17 18 20 21 22 23 24 0
-52 17 18 19 21 22 23 24 0
-53 17 18 19 20 22 23 24 0
-54 17 18 19 20 21 23 24 0
-55 17 18 19 20 21 22 24 0
-56 17 18 19 20 21 22 23 0
-49 26 27 28 29 30 31 32 0
-50 25 27 28 29 30 31 32 0
-51 25 26 28 29 30 31 32 0
-52 25 26 27 29 30 31 32 0
-53 25 26 27 28 30 31 32 0
-54 25 26 27 28 29 31 32 0
-55 25 26 27 28 29 30 32 0
-56 25 26 27 28 29 30 31 0
-49 34 35 36 37 38 39 40 0
-50 33 35 36 37 38 39 40 0
-51 33 34 36 37 38 39 40 0
-52 33 34 35 37 38 39 40 0
-53 33 34 35 36 38 39 40 0
-54 33 34 35 36 37 39 40 0
-55 33 34 35 36 37 38 40 0
-56 33 34 35 36 37 38 39 0
-49 42 43 44 45 46 47 48 0
-50 41 43 44 45 46 47 48 0
-51 41 42 44 45 46 47 48 0
-52 41 42 43 45 46 47 48 0
-53 41 42 43 44 46 47 48 0
-54 41 42 43 44 45 47 48 0
-55 41 42 43 44 45 46 48 0
-56 41 42 43 44 45 46 47 0
-49 58 59 60 61 62 63 64 0
-50 57 59 60 61 62 63 64 0
-51 57 58 60 61 62 63 64 0
-52 57 58 59 61 62 63 64 0
-53 57 58 59 60 62 63 64 0
-54 57 58 59 60 61 63 64 0
-55 57 58 59 60 61 62 64 0
-56 57 58 59 60 61 62 63 0
-49 66 67 68 69 70 71 72 0
-50 65 67 68 69 70 71 72 0
-51 65 66 68 69 70 71 72 0
-52 65 66 67 69 70 71 72 0
-53 65 66 67 68 70 71 72 0
-54 65 66 67 68 69 71 72 0
-55 65 66 67 68 69 70 72 0
-56 65 66 67 68 69 70 71 0
-57 2 3 4 5 6 7 8 0
-58 1 3 4 5 6 7 8 0
-59 1 2 4 5 6 7 8 0
-60 1 2 3 5 6 7 8 0
-61 1 2 3 4 6 7 8 0
-62 1 2 3 4 5 7 8 0
-63 1 2 3 4 5 6 8 0
-64 1 2 3 4 5 6 7 0
-57 10 11 12 13 14 15 16 0
-58 9 11 12 13 14 15 16 0
-59 9 10 12 13 14 15 16 0
-60 9 10 11 13 14 15 16 0
-61 9 10 11 12 14 15 16 0
-62 9 10 11 12 13 15 16 0
-63 9 10 11 12 13 14 16 0
-64 9 10 11 12 13 14 15 0
-57 18 19 20 21 22 23 24 0
-58 17 19 20 21 22 23 24 0
-59 17 18 20 21 22 23 24 0
-60 17 18 19 21 22 23 24 0
-61 17 18 19 20 22 23 24 0
-62 17 18 19 20 21 23 24 0
-63 17 18 19 20 21 22 24 0
-64 17 18 19 20 21 22 23 0
-57 26 27 28 29 30 31 32 0
-58 25 27 28 29 30 31 32 0
-59 25 26 28 29 30 31 32 0
-60 25 26 27 29 30 31 32 0
-61 25 26 27 28 30 31 32 0
-62 25 26 27 28 29 31 32 0
-63 25 26 27 28 29 30 32 0
-64 25 26 27 28 29 30 31 0
-57 34 35 36 37 38 39 40 0
-58 33 35 36 37 38 39 40 0
-59 33 34 36 37 38 39 40 0
-60 33 34 35 37 38 39 40 0
-61 33 34 35 36 38 39 40 0
-62 33 34 35 36 37 39 40 0
-63 33 34 35 36 37 38 40 0
-64 33 34 35 36 37 38 39 0
-57 42 43 44 45 46 47 48 0
-58 41 43 44 45 46 47 48 0
-59 41 42 44 45 46 47 48 0
-60 41 42 43 45 46 47 48 0
-61 41 42 43 44 46 47 48 0
-62 41 42 43 44 45 47 48 0
-63 41 42 43 44 45 46 48 0
-64 41 42 43 44 45 46 47 0
-57 50 51 52 53 54 55 56 0
-58 49 51 52 53 54 55 56 0
-59 49 50 52 53 54 55 56 0
-60 49 50 51 53 54 55 56 0
-61 49 50 51 52 54 55 56 0
-62 49 50 51 52 53 55 56 0
-63 49 50 51 52 53 54 56 0
-64 49 50 51 52 53 54 55 0
-57 66 67 68 69 70 71 72 0
-58 65 67 68 69 70 71 72 0
-59 65 66 68 69 70 71 72 0
-60 65 66 67 69 70 71 72 0
-61 65 66 67 68 70 71 72 0
-62 65 66 67 68 69 71 72 0
-63 65 66 67 68 69 70 72 0
-64 65 66 67 68 69 70 71 0
-65 2 3 4 5 6 7 8 0
-66 1 3 4 5 6 7 8 0
-67 1 2 4 5 6 7 8 0
-68 1 2 3 5 6 7 8 0
-69 1 2 3 4 6 7 8 0
-70 1 2 3 4 5 7 8 0
-71 1 2 3 4 5 6 8 0
-72 1 2 3 4 5 6 7 0
-65 10 11 12 13 14 15 16 0
-66 9 11 12 13 14 15 16 0
-67 9 10 12 13 14 15 16 0
-68 9 10 11 13 14 15 16 0
-69 9 10 11 12 14 15 16 0
-70 9 10 11 12 13 15 16 0
-71 9 10 11 12 13 14 16 0
-72 9 10 11 12 13 14 15 0
-65 18 19 20 21 22 23 24 0
-66 17 19 20 21 22 23 24 0
-67 17 18 20 21 22 23 24 0
-68 17 18 19 21 22 23 24 0
-69 17 18 19 20 22 23 24 0
-70 17 18 19 20 21 23 24 0
-71 17 18 19 20 21 22 24 0
-72 17 18 19 20 21 22 23 0
-65 26 27 28 29 30 31 32 0
-66 25 27 28 29 30 31 32 0
-67 25 26 28 29 30 31 32 0
-68 25 26 27 29 30 31 32 0
-69 25 26 27 28 30 31 32 0
-70 25 26 27 28 29 31 32 0
-71 25 26 27 28 29 30 32 0
-72 25 26 27 28 29 30 31 0
-65 34 35 36 37 38 39 40 0
-66 33 35 36 37 38 39 40 0
-67 33 34 36 37 38 39 40 0
-68 33 34 35 37 38 39 40 0
-69 33 34 35 36 38 39 40 0
-70 33 34 35 36 37 39 40 0
-71 33 34 35 36 37 38 40 0
-72 33 34 35 36 37 38 39 0
-65 42 43 44 45 46 47 48 0
-66 41 43 44 45 46 47 48 0
-67 41 42 44 45 46 47 48 0
-68 41 42 43 45 46 47 48 0
-69 41 42 43 44 46 47 48 0
-70 41 42 43 44 45 47 48 0
-71 41 42 43 44 45 46 48 0
-72 41 42 43 44 45 46 47 0
-65 50 51 52 53 54 55 56 0
-66 49 51 52 53 54 55 56 0
-67 49 50 52 53 54 55 56 0
-68 49 50 51 53 54 55 56 0
-69 49 50 51 52 54 55 56 0
-70 49 50 51 52 53 55 56 0
-71 49 50 51 52 53 54 56 0
-72 49 50 51 52 53 54 55 0
-65 58 59 60 61 62 63 64 0
-66 57 59 60 61 62 63 64 0
-67 57 58 60 61 62 63 64 0
-68 57 58 59 61 62 63 64 0
-69 57 58 59 60 62 63 64 0
-70 57 58 59 60 61 63 64 0
-71 57 58 59 60 61 62 64 0
-72 57 58 59 60 61 62 63 0
